/* Objective function */
min: - 0.0054fpdi - 0.0054fpdo + 0.05apdi + 0.05apdo + 0.0002pi + 0.0002po - 0.5fsi - 0.5fso;

apdi = 0.0 hi + -0.0 li + 11.83763 ri + -0.00823 ci + -1.79525 si + 0.0 ti + 0.12925 fTempIi + 0.0081 ami + -146.13176;
asi = 0.0 hi + -0.0 li + -0.0 ri + 0.0 ci + 0.0 si + -0.0 ti + 0.0 fTempIi + 8e-05 ami + 0.0;
aTempOi = 0.0 hi + 0.0 li + 0.29505 ri + -0.05707 ci + -0.05359 si + 0.0 ti + 0.77645 fTempIi + -0.00026 ami + 7.04059;
fpdi = 0.0 hi + -0.0 li + 12.52772 ri + -17.61164 ci + -0.02861 si + 0.0 ti + -0.67611 fTempIi + 0.00012 ami + 326.9246;
fsi = 0.0 hi + -0.0 li + -0.00015 ri + -0.06132 ci + 3e-05 si + 0.0 ti + 0.0005 fTempIi + -0.0 ami + 2.19202;
fTempOi = 0.0 hi + 0.0 li + -0.29353 ri + 0.05698 ci + 0.05322 si + -0.0 ti + 0.23627 fTempIi + -0.00021 ami + 9.56858;
pi = 0.0 hi + 0.0 li + 274.24444 ri + 2.74051 ci + -23.0019 si + 0.0 ti + 0.0 fTempIi + 0.0 ami + 809.11126;

apdo = 0.0 ho + -0.0 lo + 11.97639 ro + 0.00799 co + -1.80918 so + 0.0 to + 0.10113 fTempIo + 0.00831 amo + -148.84422;
aso = 0.0 ho + -0.0 lo + -0.0 ro + 0.0 co + 0.0 so + -0.0 to + 0.0 fTempIo + 8e-05 amo + 0.0;
aTempOo = 0.0 ho + 0.0 lo + -0.31142 ro + 0.06535 co + 0.05496 so + 0.0 to + 0.75232 fTempIo + 0.00027 amo + -0.6248;
fpdo = 0.0 ho + -0.0 lo + 12.19985 ro + -17.50441 co + 0.0292 so + 0.0 to + -0.67751 fTempIo + -0.00014 amo + 324.40855;
fso = 0.0 ho + -0.0 lo + 0.00012 ro + -0.06137 co + -2e-05 so + 0.0 to + 0.00062 fTempIo + 0.0 amo + 2.19177;
fTempOo = 0.0 ho + 0.0 lo + 0.3092 ro + -0.06568 co + -0.05493 so + 0.0 to + 0.25278 fTempIo + 0.00024 amo + 12.80031;
po = 0.0 ho + -0.0 lo + 298.94444 ro + 2.73949 co + -30.34952 so + 0.0 to + 0.0 fTempIo + 0.0 amo + 1041.78176;

/* Variable bounds */
aTempOi > 18.6;
1 =r6i + r8i + r10i + r12i + r14i;
ri =6r6i + 8r8i + 10r10i + 12r12i + 14r14i;
1 =s25i + s30i + s40i;
si =25s25i + 30s30i + 40s40i;
ti = 2;
apdi > 100;
apdi < 300;
asi > 0;
asi < 3;
aTempOi > 5;
aTempOi < 25;
fpdi > 100;
fpdi < 300;
fsi > 0;
fsi < 1.25;
fTempOi > 5;
fTempOi < 25;
pi > 0;
ri > 6;
ri < 14;
ci > 14;
ci < 60;
si > 25;
si < 60;
ti > 1;
ti < 3;
fTempIi > 5;
fTempIi < 25;

/* aTempOo < 11.4; */
1 =r6o + r8o + r10o + r12o + r14o;
ro =6r6o + 8r8o + 10r10o + 12r12o + 14r14o;
1 =s25o + s30o + s40o;
so =25s25o + 30s30o + 40s40o;
to = 1;
apdo > 100;
apdo < 300;
aso > 0;
aso < 3;
aTempOo > 5;
aTempOo < 25;
fpdo > 100;
fpdo < 300;
fso > 0;
fso < 1.25;
fTempOo > 5;
fTempOo < 25;
po > 0;
ro > 6;
ro < 14;
co > 14;
co < 60;
so > 25;
so < 60;
to > 1;
to < 3;
fTempIo > 5;
fTempIo < 25;
int hi,li,si,ti,ci,ri,ami;
int ho,lo,so,to,co,ro,amo;
bin s25i,s30i,s40i,s50i,s60i,r6i,r8i,r10i,r12i,r14i;
bin s25o,s30o,s40o,s50o,s60o,r6o,r8o,r10o,r12o,r14o;
